
Gurobi 9.5.1 (linux64) logging started Thu Mar 31 14:11:23 2022

Set parameter LogFile to value "../results/logs/log_2022_03_31_14_10.csv_3_250.log"
Gurobi Optimizer version 9.5.1 build v9.5.1rc2 (linux64)
Thread count: 8 physical cores, 8 logical processors, using up to 8 threads
Optimize a model with 16987 rows, 454640 columns and 163125 nonzeros
Model fingerprint: 0xd773c2a7
Coefficient statistics:
  Matrix range     [1e+00, 3e+00]
  Objective range  [1e+00, 1e+00]
  Bounds range     [1e+00, 1e+00]
  RHS range        [1e+00, 2e+02]

Concurrent LP optimizer: primal simplex, dual simplex, and barrier
Showing barrier log only...

Presolve removed 7556 rows and 440063 columns
Presolve time: 0.26s
Presolved: 9431 rows, 14577 columns, 39610 nonzeros

Ordering time: 0.00s

Barrier statistics:
 AA' NZ     : 1.179e+04
 Factor NZ  : 2.222e+04 (roughly 4 MB of memory)
 Factor Ops : 1.593e+05 (less than 1 second per iteration)
 Threads    : 1

                  Objective                Residual
Iter       Primal          Dual         Primal    Dual     Compl     Time
   0   1.84392196e+05  6.96242196e+05  2.33e+03 4.48e+01  1.76e+03     0s
   1   1.66924971e+05  1.51352439e+06  1.00e+03 5.68e-13  7.35e+02     0s
   2   1.57740869e+05  1.04844850e+06  1.31e+02 5.68e-13  1.21e+02     0s
   3   1.56678121e+05  4.42567264e+05  2.22e+01 1.04e-12  2.52e+01     0s
   4   1.56596381e+05  2.39761089e+05  8.70e-01 1.55e-12  5.24e+00     0s
   5   1.56761482e+05  1.83899750e+05  8.45e-02 1.14e-12  1.66e+00     0s
   6   1.56928899e+05  1.61737876e+05  1.24e-02 5.68e-13  2.92e-01     0s
   7   1.57406611e+05  1.58656102e+05  1.02e-03 1.52e-13  7.59e-02     0s
   8   1.57539030e+05  1.58596175e+05  5.78e-04 2.27e-13  6.42e-02     0s
   9   1.57611945e+05  1.58259830e+05  3.85e-04 1.14e-13  3.94e-02     0s
  10   1.57769183e+05  1.57973531e+05  4.18e-05 2.84e-14  1.24e-02     0s
  11   1.57822879e+05  1.57900993e+05  1.09e-05 1.52e-14  4.75e-03     0s
  12   1.57847013e+05  1.57868356e+05  2.86e-06 1.14e-13  1.30e-03     0s
  13   1.57854000e+05  1.57859144e+05  6.77e-07 5.68e-14  3.13e-04     0s
  14   1.57855784e+05  1.57856585e+05  1.43e-07 1.14e-13  4.87e-05     0s
  15   1.57856305e+05  1.57856308e+05  8.88e-15 5.68e-14  1.96e-07     0s
  16   1.57856307e+05  1.57856307e+05  2.13e-14 1.42e-14  1.96e-10     0s
  17   1.57856307e+05  1.57856307e+05  6.64e-12 2.27e-13  1.96e-13     0s

Barrier solved model in 17 iterations and 0.31 seconds (0.20 work units)
Optimal objective 1.57856307e+05

Crossover log...

     757 DPushes remaining with DInf 0.0000000e+00                 0s
       0 DPushes remaining with DInf 0.0000000e+00                 0s

     272 PPushes remaining with PInf 0.0000000e+00                 0s
       0 PPushes remaining with PInf 0.0000000e+00                 0s

  Push phase complete: Pinf 0.0000000e+00, Dinf 1.6159296e-13      0s

Iteration    Objective       Primal Inf.    Dual Inf.      Time
     719    1.5785631e+05   0.000000e+00   0.000000e+00      0s

Use crossover to convert LP symmetric solution to basic solution...
Crossover log...

       0 DPushes remaining with DInf 0.0000000e+00                 0s

     181 PPushes remaining with PInf 0.0000000e+00                 0s
       0 PPushes remaining with PInf 0.0000000e+00                 0s

  Push phase complete: Pinf 0.0000000e+00, Dinf 9.8438618e-14      0s

Iteration    Objective       Primal Inf.    Dual Inf.      Time
     926    1.5785631e+05   0.000000e+00   0.000000e+00      0s

Solved with primal simplex
Solved in 3120 iterations and 0.45 seconds (0.22 work units)
Optimal objective  1.578563065e+05

Gurobi 9.5.1 (linux64) logging started Thu Mar 31 14:24:34 2022

Set parameter LogFile to value "../results/logs/log_2022_03_31_14_10.csv_3_250.log"
Gurobi Optimizer version 9.5.1 build v9.5.1rc2 (linux64)
Thread count: 8 physical cores, 8 logical processors, using up to 8 threads
Optimize a model with 20527 rows, 393182 columns and 191427 nonzeros
Model fingerprint: 0x837c0140
Coefficient statistics:
  Matrix range     [1e+00, 3e+00]
  Objective range  [1e+00, 1e+00]
  Bounds range     [1e+00, 1e+00]
  RHS range        [1e+00, 2e+02]

Concurrent LP optimizer: primal simplex, dual simplex, and barrier
Showing barrier log only...

Presolve removed 10465 rows and 378474 columns
Presolve time: 0.24s
Presolved: 10062 rows, 14708 columns, 40232 nonzeros

Ordering time: 0.00s

Barrier statistics:
 AA' NZ     : 9.908e+03
 Factor NZ  : 1.854e+04 (roughly 4 MB of memory)
 Factor Ops : 1.290e+05 (less than 1 second per iteration)
 Threads    : 1

                  Objective                Residual
Iter       Primal          Dual         Primal    Dual     Compl     Time
   0   1.39547569e+05  5.89852196e+05  1.82e+03 1.29e+02  2.13e+03     0s
   1   1.22173877e+05  1.49018432e+06  7.82e+02 6.82e-13  8.86e+02     0s
   2   1.12582995e+05  1.03966012e+06  9.50e+01 2.02e-12  1.43e+02     0s
   3   1.11573866e+05  3.74065059e+05  1.25e+01 1.34e-12  2.56e+01     0s
   4   1.11662723e+05  2.15318860e+05  8.25e-01 2.73e-12  7.92e+00     0s
   5   1.11794182e+05  1.31486574e+05  1.70e-01 1.36e-12  1.47e+00     0s
   6   1.12109304e+05  1.15911378e+05  1.12e-02 4.55e-13  2.82e-01     0s
   7   1.12532869e+05  1.14067989e+05  2.31e-03 1.49e-13  1.14e-01     0s
   8   1.12717890e+05  1.13825788e+05  8.73e-04 1.18e-13  8.21e-02     0s
   9   1.12749471e+05  1.13461609e+05  7.37e-04 1.14e-13  5.28e-02     0s
  10   1.12843636e+05  1.13417467e+05  3.87e-04 1.14e-13  4.25e-02     0s
  11   1.12872200e+05  1.13276285e+05  3.00e-04 4.78e-14  2.99e-02     0s
  12   1.12935973e+05  1.13161218e+05  1.34e-04 1.14e-13  1.67e-02     0s
  13   1.12999264e+05  1.13051991e+05  9.40e-06 2.84e-14  3.91e-03     0s
  14   1.13011734e+05  1.13024386e+05  2.65e-06 5.68e-14  9.37e-04     0s
  15   1.13017225e+05  1.13017363e+05  9.77e-15 5.68e-14  1.02e-05     0s
  16   1.13017293e+05  1.13017293e+05  5.33e-15 1.14e-13  1.02e-08     0s
  17   1.13017293e+05  1.13017293e+05  5.77e-13 5.68e-14  5.49e-12     0s

Barrier solved model in 17 iterations and 0.28 seconds (0.18 work units)
Optimal objective 1.13017293e+05

Crossover log...

    1036 DPushes remaining with DInf 0.0000000e+00                 0s
       0 DPushes remaining with DInf 0.0000000e+00                 0s

     151 PPushes remaining with PInf 0.0000000e+00                 0s
       0 PPushes remaining with PInf 0.0000000e+00                 0s

  Push phase complete: Pinf 0.0000000e+00, Dinf 1.6722734e-13      0s

Iteration    Objective       Primal Inf.    Dual Inf.      Time
     579    1.1301729e+05   0.000000e+00   0.000000e+00      0s

Use crossover to convert LP symmetric solution to basic solution...
Crossover log...

       0 DPushes remaining with DInf 0.0000000e+00                 0s

     413 PPushes remaining with PInf 0.0000000e+00                 0s
       0 PPushes remaining with PInf 0.0000000e+00                 0s

  Push phase complete: Pinf 0.0000000e+00, Dinf 5.3373972e-14      0s

Iteration    Objective       Primal Inf.    Dual Inf.      Time
    1028    1.1301729e+05   0.000000e+00   0.000000e+00      0s

Solved with primal simplex
Solved in 2968 iterations and 0.40 seconds (0.20 work units)
Optimal objective  1.130172934e+05

Gurobi 9.5.1 (linux64) logging started Thu Mar 31 14:29:10 2022

Set parameter LogFile to value "../results/logs/log_2022_03_31_14_10.csv_3_250.log"
Gurobi Optimizer version 9.5.1 build v9.5.1rc2 (linux64)
Thread count: 8 physical cores, 8 logical processors, using up to 8 threads
Optimize a model with 22021 rows, 634160 columns and 227191 nonzeros
Model fingerprint: 0x61c72d93
Coefficient statistics:
  Matrix range     [1e+00, 3e+00]
  Objective range  [1e+00, 1e+00]
  Bounds range     [1e+00, 1e+00]
  RHS range        [1e+00, 2e+02]

Concurrent LP optimizer: primal simplex, dual simplex, and barrier
Showing barrier log only...

Presolve removed 10837 rows and 616824 columns
Presolve time: 0.35s
Presolved: 11184 rows, 17336 columns, 45633 nonzeros

Ordering time: 0.00s

Barrier statistics:
 AA' NZ     : 1.134e+04
 Factor NZ  : 2.139e+04 (roughly 4 MB of memory)
 Factor Ops : 1.527e+05 (less than 1 second per iteration)
 Threads    : 1

                  Objective                Residual
Iter       Primal          Dual         Primal    Dual     Compl     Time
   0   2.51031528e+05  9.83256066e+05  2.99e+03 6.96e+01  3.10e+03     0s
   1   2.22737812e+05  2.14733701e+06  1.15e+03 7.96e-13  1.17e+03     0s
   2   2.10331395e+05  1.53535555e+06  1.38e+02 1.82e-12  1.84e+02     0s
   3   2.09007296e+05  5.91217600e+05  2.09e+01 3.17e-12  3.42e+01     0s
   4   2.08955310e+05  3.33456356e+05  5.62e-01 1.13e-12  8.00e+00     0s
   5   2.09128567e+05  2.82757433e+05  1.20e-01 9.09e-13  4.64e+00     0s
   6   2.09361103e+05  2.28071735e+05  8.59e-03 1.28e-12  1.17e+00     0s
   7   2.09612156e+05  2.11565687e+05  5.68e-14 3.41e-13  1.23e-01     0s
   8   2.09928084e+05  2.11176423e+05  4.53e-14 2.27e-13  7.83e-02     0s
   9   2.10008659e+05  2.10925021e+05  2.31e-14 1.42e-13  5.75e-02     0s
  10   2.10176035e+05  2.10622538e+05  1.78e-14 7.11e-14  2.80e-02     0s
  11   2.10310483e+05  2.10572752e+05  3.55e-15 4.97e-14  1.65e-02     0s
  12   2.10336731e+05  2.10533284e+05  8.88e-15 4.26e-14  1.23e-02     0s
  13   2.10355275e+05  2.10469350e+05  1.78e-15 2.84e-14  7.16e-03     0s
  14   2.10395930e+05  2.10437375e+05  1.07e-14 1.14e-13  2.60e-03     0s
  15   2.10410938e+05  2.10418868e+05  8.88e-16 1.14e-13  4.98e-04     0s
  16   2.10414967e+05  2.10415207e+05  1.78e-15 1.14e-13  1.50e-05     0s
  17   2.10415116e+05  2.10415117e+05  3.55e-15 1.14e-13  1.87e-08     0s
  18   2.10415117e+05  2.10415117e+05  1.95e-12 5.65e-14  6.82e-14     0s

Barrier solved model in 18 iterations and 0.40 seconds (0.26 work units)
Optimal objective 2.10415117e+05

Crossover log...

     932 DPushes remaining with DInf 0.0000000e+00                 0s
       0 DPushes remaining with DInf 0.0000000e+00                 0s

     170 PPushes remaining with PInf 0.0000000e+00                 0s
       0 PPushes remaining with PInf 0.0000000e+00                 0s

  Push phase complete: Pinf 0.0000000e+00, Dinf 2.3803182e-13      0s

Iteration    Objective       Primal Inf.    Dual Inf.      Time
     582    2.1041512e+05   0.000000e+00   0.000000e+00      0s

Use crossover to convert LP symmetric solution to basic solution...
Crossover log...

       0 DPushes remaining with DInf 0.0000000e+00                 0s

     129 PPushes remaining with PInf 0.0000000e+00                 0s
       0 PPushes remaining with PInf 0.0000000e+00                 0s

  Push phase complete: Pinf 0.0000000e+00, Dinf 1.4344081e-13      0s

Iteration    Objective       Primal Inf.    Dual Inf.      Time
     731    2.1041512e+05   0.000000e+00   0.000000e+00      1s

Solved with primal simplex
Solved in 3000 iterations and 0.55 seconds (0.28 work units)
Optimal objective  2.104151166e+05
